(set-option :produce-models true)
(set-logic QF_UF)
(declare-fun p90() Bool)
(declare-fun p56() Bool)
(declare-fun p3() Bool)
(declare-fun p60() Bool)
(declare-fun p33() Bool)
(declare-fun p4() Bool)
(declare-fun p97() Bool)
(declare-fun p47() Bool)
(declare-fun p29() Bool)
(declare-fun p99() Bool)
(declare-fun p62() Bool)
(declare-fun p49() Bool)
(declare-fun p9() Bool)
(declare-fun p72() Bool)
(declare-fun p28() Bool)
(declare-fun p15() Bool)
(declare-fun p25() Bool)
(declare-fun p59() Bool)
(declare-fun p40() Bool)
(declare-fun p41() Bool)
(declare-fun p80() Bool)
(declare-fun p21() Bool)
(declare-fun p6() Bool)
(declare-fun p54() Bool)
(declare-fun p45() Bool)
(declare-fun p82() Bool)
(declare-fun p11() Bool)
(declare-fun p12() Bool)
(declare-fun p57() Bool)
(declare-fun p31() Bool)
(declare-fun p16() Bool)
(declare-fun p73() Bool)
(declare-fun p24() Bool)
(declare-fun p0() Bool)
(declare-fun p5() Bool)
(declare-fun p91() Bool)
(declare-fun p30() Bool)
(declare-fun p50() Bool)
(declare-fun p87() Bool)
(declare-fun p1() Bool)
(declare-fun p42() Bool)
(declare-fun p63() Bool)
(declare-fun p18() Bool)
(declare-fun p27() Bool)
(declare-fun p38() Bool)
(declare-fun p8() Bool)
(declare-fun p81() Bool)
(declare-fun p37() Bool)
(declare-fun p79() Bool)
(declare-fun p83() Bool)
(declare-fun p10() Bool)
(declare-fun p43() Bool)
(declare-fun p70() Bool)
(declare-fun p92() Bool)
(declare-fun p95() Bool)
(declare-fun p17() Bool)
(declare-fun p61() Bool)
(declare-fun p23() Bool)
(declare-fun p69() Bool)
(declare-fun p34() Bool)
(declare-fun p65() Bool)
(declare-fun p2() Bool)
(declare-fun p19() Bool)
(declare-fun p96() Bool)
(declare-fun p58() Bool)
(declare-fun p35() Bool)
(declare-fun p55() Bool)
(declare-fun p88() Bool)
(declare-fun p66() Bool)
(declare-fun p86() Bool)
(declare-fun p64() Bool)
(declare-fun p94() Bool)
(declare-fun p53() Bool)
(declare-fun p44() Bool)
(declare-fun p52() Bool)
(declare-fun p77() Bool)
(declare-fun p75() Bool)
(declare-fun p67() Bool)
(declare-fun p48() Bool)
(declare-fun p84() Bool)
(declare-fun p32() Bool)
(declare-fun p74() Bool)
(declare-fun p76() Bool)
(declare-fun p85() Bool)
(declare-fun p26() Bool)
(declare-fun p51() Bool)
(declare-fun p93() Bool)
(declare-fun p71() Bool)
(declare-fun p39() Bool)
(declare-fun p68() Bool)
(declare-fun p46() Bool)
(declare-fun p22() Bool)
(declare-fun p14() Bool)
(declare-fun p89() Bool)
(declare-fun p20() Bool)
(declare-fun p7() Bool)
(declare-fun p98() Bool)
(declare-fun p78() Bool)
(declare-fun p13() Bool)
(declare-fun p36() Bool)
(assert
(and (or p90 p56 (not p3)) (or p60 p60 (not p33)) (or (not p4) p97 p47) (or p29 (not p99) p62) (or p49 p9 p72) (or (not p28) (not p15) p25) (or (not p59) (not p40) p62) (or p41 (not p40) p80) (or (not p21) (not p6) (not p80)) (or (not p54) p9 p45) (or (not p82) p82 p11) (or (not p82) p60 p82) (or p29 p28 (not p54)) (or p12 (not p57) (not p62)) (or p41 (not p28) (not p31)) (or p72 p59 (not p16)) (or (not p73) p24 (not p0)) (or (not p5) p24 p91) (or (not p6) p30 (not p11)) (or p50 p87 p1) (or (not p59) (not p42) (not p63)) (or p18 p49 p49) (or p41 p27 p38) (or (not p8) (not p91) p81) (or (not p82) p37 (not p79)) (or p8 (not p28) (not p8)) (or (not p83) (not p40) (not p10)) (or p43 p43 p70) (or (not p25) p28 p92) (or p95 (not p17) (not p61)) (or p62 p70 (not p23)) (or (not p69) (not p34) (not p65)) (or (not p2) (not p19) p96) (or p72 p58 (not p65)) (or p8 p35 (not p55)) (or p23 p88 p92) (or (not p27) (not p60) p66) (or (not p37) (not p70) (not p57)) (or (not p63) (not p24) p80) (or p24 (not p86) p64) (or (not p94) p45 p53) (or (not p44) (not p45) p52) (or (not p77) (not p77) (not p75)) (or (not p15) (not p43) p94) (or p34 (not p31) p67) (or p50 (not p10) (not p75)) (or p62 (not p15) p27) (or (not p8) p77 (not p48)) (or (not p75) (not p84) p92) (or (not p49) (not p3) (not p32)) (or (not p74) (not p11) p81) (or (not p75) p76 p2) (or (not p85) (not p79) p1) (or p24 p77 p31) (or (not p97) (not p40) (not p4)) (or p82 (not p31) p34) (or p17 (not p33) (not p26)) (or p10 p51 (not p65)) (or (not p34) (not p58) p9) (or (not p57) p53 (not p9)) (or p53 (not p33) (not p25)) (or p26 (not p56) p17) (or (not p3) (not p62) (not p93)) (or p81 p59 p63) (or (not p42) (not p52) p90) (or p11 (not p77) p21) (or (not p71) p62 p39) (or (not p43) (not p97) (not p27)) (or p5 (not p30) p68) (or p74 (not p65) (not p3)) (or (not p47) p46 (not p56)) (or p67 p46 (not p88)) (or p54 (not p25) p70) (or p9 p90 (not p66)) (or (not p67) (not p69) (not p11)) (or p45 (not p50) (not p16)) (or p97 p56 p10) (or p10 p37 p81) (or (not p26) (not p62) p5) (or (not p70) p87 (not p88)) (or p10 p97 p31) (or (not p69) p22 (not p79)) (or (not p44) p43 (not p14)) (or (not p0) p99 (not p61)) (or (not p61) p73 (not p65)) (or (not p42) p25 p56) (or (not p75) p89 (not p20)) (or (not p92) (not p45) p66) (or (not p65) (not p88) p75) (or (not p7) p41 p87) (or p22 (not p2) p17) (or p38 (not p39) p85) (or p85 (not p97) p33) (or p46 p63 (not p72)) (or (not p49) p0 (not p67)) (or (not p29) (not p41) (not p40)) (or (not p53) p8 (not p40)) (or (not p51) (not p35) p41) (or (not p47) p46 p4) (or p40 (not p81) p37) (or (not p82) (not p59) (not p21)) (or (not p37) (not p55) p62) (or (not p2) (not p8) (not p67)) (or (not p92) (not p11) (not p71)) (or (not p40) p15 p77) (or p4 p92 (not p27)) (or p93 p73 (not p46)) (or (not p67) p95 (not p98)) (or (not p38) p87 p99) (or p88 (not p83) (not p12)) (or p93 (not p82) p63) (or (not p50) p93 (not p44)) (or (not p84) p91 (not p59)) (or p76 p61 (not p31)) (or (not p97) (not p31) p54) (or (not p92) (not p32) (not p94)) (or (not p2) p35 p31) (or (not p14) (not p52) p28) (or (not p11) p80 (not p54)) (or p96 p87 (not p5)) (or p25 (not p64) (not p80)) (or (not p94) p70 (not p86)) (or (not p52) (not p21) (not p55)) (or (not p77) (not p86) p23) (or p41 (not p20) p51) (or (not p50) p15 (not p18)) (or (not p56) (not p79) (not p44)) (or p32 p78 (not p67)) (or p83 p11 p6) (or p81 p70 (not p62)) (or p88 (not p97) p53) (or (not p70) (not p9) (not p27)) (or (not p85) p77 (not p22)) (or (not p80) (not p65) p79) (or p46 (not p84) (not p31)) (or (not p89) p13 p22) (or p49 (not p27) p67) (or (not p75) p35 (not p48)) (or p94 (not p6) (not p6)) (or p9 (not p35) p98) (or p64 (not p34) (not p99)) (or p20 p67 p51) (or p42 (not p53) p40) (or p48 p75 p69) (or p79 (not p98) p30) (or (not p64) (not p68) p26) (or p44 (not p66) p45) (or p7 p50 p4) (or (not p16) p53 (not p66)) (or (not p39) p7 (not p21)) (or p93 (not p19) p42) (or p40 p88 (not p44)) (or p89 (not p55) (not p34)) (or p32 p81 p34) (or p83 p55 p38) (or (not p62) p94 (not p57)) (or (not p34) p95 p44) (or (not p98) p7 p22) (or p55 p25 (not p85)) (or p0 (not p9) (not p1)) (or (not p65) p72 (not p48)) (or (not p17) (not p31) (not p82)) (or (not p72) p36 p36) (or p70 p73 p78) (or (not p96) p22 p74) (or (not p82) p2 (not p26)) (or (not p21) (not p16) (not p71)) (or (not p24) p44 p15) (or p96 p80 (not p29)) (or p55 p79 (not p91)) (or p70 p92 p61) (or p36 p81 (not p25)) (or p93 (not p15) p74) (or (not p7) (not p18) p7) (or (not p15) p64 p69) (or (not p80) (not p21) p83) (or (not p87) p53 (not p98)) (or (not p75) (not p83) p40) (or (not p33) (not p45) p62) (or (not p70) p14 p81) (or (not p54) (not p28) p18) (or (not p4) p56 (not p45)) (or (not p13) (not p76) p37) (or p5 (not p37) p66) (or p34 (not p10) (not p14)) (or (not p29) (not p0) p20) (or (not p51) (not p95) (not p92)) (or (not p38) (not p6) p92) (or (not p86) (not p53) (not p7)) (or p50 (not p3) p13) (or (not p40) (not p89) p44) (or (not p11) p50 (not p25)) (or (not p7) (not p36) (not p75)) (or p66 p11 (not p99)) (or p41 p17 (not p43)) (or (not p15) (not p8) p24) (or p14 (not p89) p26) (or (not p79) p74 p6) (or p64 p58 (not p55)) (or (not p50) (not p48) (not p74)) (or p94 p72 p49) (or (not p48) (not p43) p30) (or (not p37) (not p70) p56) (or p48 (not p58) (not p75)) (or (not p96) (not p5) p7) (or p28 (not p63) (not p36)) (or p42 p39 (not p49)) (or p54 p80 p80) (or p73 p33 (not p33)) (or (not p77) (not p33) (not p83)) (or p56 (not p64) (not p74)) (or (not p89) p96 p44) (or (not p74) p14 p1) (or p12 p7 p97) (or (not p42) p89 p38) (or p95 p64 p60) (or (not p52) p57 p38) (or p72 p18 p15) (or p44 (not p18) (not p35)) (or (not p80) (not p51) p0) (or (not p51) p42 (not p25)) (or p94 (not p0) (not p54)) (or p97 (not p95) (not p71)) (or p14 (not p33) (not p35)) (or p52 p51 p45) (or p57 (not p36) p68) (or (not p2) p44 p35) (or p1 p99 p30) (or p27 (not p95) (not p41)) (or (not p31) p26 (not p96)) (or (not p66) p25 p56) (or (not p47) (not p2) p38) (or p99 (not p13) p65) (or p25 p45 (not p32)) (or (not p84) (not p96) (not p18)) (or (not p63) p46 p72) (or p45 (not p80) p78) (or p58 (not p67) (not p73)) (or p28 p22 (not p56)) (or p93 p94 (not p42)) (or p72 (not p38) p78) (or p15 p0 (not p96)) (or (not p42) (not p78) p21) (or (not p58) (not p91) (not p44)) (or (not p3) p21 (not p96)) (or (not p32) p67 (not p48)) (or p25 p13 p89) (or (not p26) (not p19) p13) (or (not p14) p91 p76) (or p43 p30 (not p47)) (or (not p7) p19 p96) (or (not p48) (not p81) (not p77)) (or (not p59) p79 (not p25)) (or p94 (not p53) p66) (or (not p91) p98 (not p89)) (or p25 (not p10) p80) (or p57 (not p93) (not p99)) (or (not p26) (not p39) p97) (or p24 p4 p76) (or (not p53) (not p10) p4) (or p42 p82 p32) (or p39 p25 p36) (or (not p5) (not p80) (not p97)) (or p27 (not p65) p47) (or (not p54) p40 (not p35)) (or p31 p71 (not p1)) (or (not p89) p55 p49) (or p64 (not p25) (not p80)) (or (not p24) p25 (not p44)) (or p68 p80 (not p27)) (or (not p5) (not p46) p26) (or p55 p61 p13) (or (not p49) (not p0) (not p24)) (or (not p1) p78 p68) (or p50 (not p83) p31) (or p91 p16 p67) (or p97 (not p29) p5) (or (not p77) p84 p71) (or (not p86) p95 (not p7)) (or (not p2) (not p9) (not p86)) (or (not p21) (not p70) p66) (or p35 (not p37) (not p36)) (or (not p91) (not p67) p95) (or (not p75) p19 (not p18)) (or (not p3) (not p86) (not p37)) (or (not p27) p66 p41) (or p61 (not p16) (not p11)) (or (not p0) (not p21) p27) (or p97 (not p58) p45) (or p20 (not p64) (not p66)) (or p61 (not p46) p18) (or (not p91) (not p84) p82) (or (not p89) p60 (not p63)) (or p61 p15 p97) (or p7 (not p9) p74) (or (not p98) p92 p54) (or (not p99) (not p0) p17) (or p33 p98 (not p9)) (or (not p99) p51 p91) (or (not p52) (not p62) p50) (or p85 (not p95) (not p97)) (or (not p55) p93 p22) (or (not p44) p53 (not p76)) (or p7 (not p72) (not p56)) (or p3 p30 p37) (or (not p63) p65 (not p58)) (or p69 p4 (not p0)) (or p0 (not p91) p31) (or p15 (not p4) p60) (or (not p44) p91 (not p33)) (or (not p60) p65 (not p18)) (or (not p51) p97 p49) (or (not p12) (not p96) (not p14)) (or (not p11) p84 p30) (or (not p52) (not p61) p75) (or p84 (not p10) (not p17)) (or p12 (not p45) (not p73)) (or (not p80) p20 p95) (or p17 (not p40) p99) (or (not p23) p43 p93) (or (not p57) p29 p99) (or (not p12) p39 (not p20)) (or p31 (not p22) (not p64)) (or p37 p10 p32) (or p87 p24 (not p69)) (or (not p67) p29 (not p32)) (or (not p5) (not p47) (not p31)) (or (not p88) p49 (not p94)) (or p55 (not p91) (not p25)) (or (not p96) p63 p28) (or (not p79) (not p67) p89) (or (not p69) p37 p52) (or (not p84) p54 (not p68)) (or p36 (not p83) p89) (or (not p66) (not p8) p77) (or (not p92) (not p71) (not p11)) (or p59 p18 (not p0)) (or (not p72) (not p7) (not p94)) (or (not p5) p65 p3) (or (not p52) (not p71) (not p97)) (or p31 p88 (not p24)) (or p48 p83 p24) (or p93 p26 (not p29)) (or (not p89) p50 (not p9)) (or (not p4) p41 p23) (or p97 (not p89) p61) (or (not p71) (not p58) p34) (or p24 (not p41) (not p37)) (or p16 (not p96) (not p10)) (or (not p41) (not p35) (not p15)) (or (not p81) (not p78) (not p80)) (or p90 p19 p69) (or p40 p67 (not p1)) (or p77 p27 p93) (or (not p42) (not p78) p87) (or (not p93) (not p44) p21) (or (not p60) p27 (not p86)) (or (not p52) p66 (not p77)) (or (not p63) p50 (not p5)) (or (not p64) (not p39) (not p7)) (or (not p98) (not p75) (not p29)) (or (not p40) (not p12) p59) (or p55 (not p59) p62) (or (not p55) (not p64) (not p92)) (or p45 (not p26) (not p2)) (or p4 (not p32) p85) (or p16 p16 (not p93)) (or p71 (not p7) p75) (or (not p65) p2 (not p52)) (or (not p49) (not p17) p36) (or p64 p9 p85) (or (not p55) p93 p13) (or p0 (not p36) p74) (or (not p29) (not p25) (not p46)) (or (not p59) (not p26) (not p65)) (or p80 p69 (not p19)) (or (not p52) p43 p40) (or p81 p89 p6) (or (not p91) p46 (not p2)) (or p54 p42 (not p49)) (or (not p41) p41 (not p56)) (or (not p6) p70 p61) (or (not p50) (not p90) (not p66)) (or (not p85) p45 p71) (or (not p91) p80 p88) (or (not p77) (not p54) (not p15)) (or (not p40) p53 (not p15)) (or (not p23) p57 p75) (or (not p88) p40 (not p67)) (or p28 (not p67) (not p79)) (or (not p36) (not p93) p7) (or p76 p83 (not p46)) (or (not p3) p33 (not p48)) (or p17 p74 (not p96)) (or p82 p65 (not p36)) (or (not p92) p5 (not p48)) (or (not p8) p52 p38) (or p97 p84 (not p89)) (or (not p47) (not p63) p60) (or (not p84) (not p94) p11) (or (not p88) p87 (not p55)) (or p50 p43 p48) (or p93 (not p1) p66) (or p94 (not p33) p79) (or (not p82) p9 (not p61)) (or p7 p16 (not p39)) (or p47 p32 p28) (or p59 p83 (not p34)) (or p81 p73 p51) (or p57 p36 (not p43)) (or (not p20) (not p52) p44) (or p87 (not p10) p34) (or (not p86) p2 (not p74)) (or (not p75) p41 (not p39)) (or (not p68) (not p0) (not p66)) (or p91 p89 p64) (or (not p77) (not p68) p62) (or (not p13) p67 p33) (or (not p71) p33 (not p20)) (or p26 p10 (not p40)))
)
(check-sat)
(get-model)
